$comment
SP
problem with qchem: SP does not work, segmentation fault, therefore do a force calculation
$end

$molecule
0 1
$end

$rem
jobtype force
method adc(2)
adc_state_to_opt [1,1]
ee_singlets 3
cc_symmetry false
basis cc-pVDZ
mem_total 4000
mem_static 2000
SYM_IGNORE TRUE
$end



@@@
$comment
FORCE 0
$end

$molecule
0 1
$end



$rem
jobtype FORCE
basis cc-pVDZ
method mp2
cc_symmetry false
mem_total 4000
mem_static 2000
SCF_GUESS READ
ADC_DAVIDSON_MAXITER 100
SYM_IGNORE TRUE
$end



@@@
$comment
FORCE 1
$end

$molecule
0 1
$end



$rem
jobtype FORCE
basis cc-pVDZ
method adc(2)
cc_symmetry false
ee_singlets 3
adc_state_to_opt [1,1]
mem_total 4000
mem_static 2000
SCF_GUESS READ
ADC_DAVIDSON_MAXITER 100
SYM_IGNORE TRUE
$end


@@@
$comment
FORCE 2
$end


$molecule
0 1
$end



$rem
jobtype FORCE
basis cc-pVDZ
method adc(2)
cc_symmetry false
ee_singlets 3
adc_state_to_opt [1,2]
mem_total 4000
mem_static 2000
SCF_GUESS READ
ADC_DAVIDSON_MAXITER 100
SYM_IGNORE TRUE
$end



@@@
$comment
FORCE 3
$end


$molecule
0 1
$end



$rem
jobtype FORCE
basis cc-pVDZ
method adc(2)
cc_symmetry false
ee_singlets 4
adc_state_to_opt [1,3]
mem_total 4000
mem_static 2000
SCF_GUESS READ
ADC_DAVIDSON_MAXITER 100
SYM_IGNORE TRUE
$end
