$molecule                                                               
0 1                                                                     
C       1.1448564643     0.7029430222     0.0117131709                  
N       0.0018318763     1.4721558012    -0.0038118670                  
C      -1.1456138447     0.7010752935    -0.0026928110                  
C      -1.1467641457    -0.7010180114    -0.0132258153                  
H      -2.0966317036     1.2541610504     0.0064138044                  
H      -2.0972080745    -1.2514252167    -0.0032414152                  
N       0.0006739797    -1.4744460878     0.0155039111                  
C       1.1456586084    -0.7038134341     0.0035716747                  
H       2.0966255578    -1.2566786509    -0.0122898730                  
H       2.0965512820     1.2570362336    -0.0019107785                  
$end                                                                    


$rem                                                                    
jobtype opt                                                        
exchange pbe0                                                           
basis cc-pVDZ                                                            
RPA 0                                                                   
MAX_SCF_CYCLES 500                                                      
xc_grid 000075000302                                                    
mem_static 4000                                                         
mem_total 16000                                                         
SYM_IGNORE TRUE                                                         
MOLDEN_FORMAT TRUE
$end                                                                    

@@@
$molecule
read
$end

$rem                                                                    
jobtype freq                                                        
exchange pbe0                                                           
basis cc-pVDZ                                                           
RPA 0                                                                   
MAX_SCF_CYCLES 500                                                      
xc_grid 000075000302                                                    
mem_static 4000                                                         
mem_total 16000                                                         
SYM_IGNORE TRUE                                                         
MOLDEN_FORMAT TRUE
$end                                                                    

